1 104 63 193 6 49 199 114 92 8 174 157 136 133 200 56 80 31 42 169 89 173 103 159 141 189 54 121 40 64 2 44 170 176 82 95 13 76 33 37 143 5 105 78 52 156 96 186 39 150 195 194 191 50 73 123 69 130 168 135 102 81 25 61 51 87 106 154 68 85 162 183 172 30 171 138 139 128 48 188 14 198 100 71 41 158 134 190 125 117 43 3 46 29 34 122 108 55 83 175 9 7 57 147 131 167 20 12 27 86 35 142 155 120 164 62 60 179 115 23 45 185 32 101 153 15 17 11 21 74 59 124 132 36 161 126 99 107 182 178 109 38 24 18 116 79 166 53 144 88 163 151 94 16 22 70 148 184 111 152 187 26 196 66 65 4 197 181 145 97 75 110 192 19 119 90 149 118 10 137 84 129 72 146 112 47 140 91 127 98 113 77 165 180 177 58 67 28 93 160
